c " random instance " 
p edges 200 4100
e 1 3
e 1 8
e 1 17
e 1 35
e 1 38
e 1 50
e 1 53
e 1 54
e 1 59
e 1 70
e 1 74
e 1 75
e 1 76
e 1 78
e 1 79
e 1 81
e 1 82
e 1 88
e 1 89
e 1 90
e 1 96
e 1 99
e 1 100
e 1 106
e 1 107
e 1 114
e 1 121
e 1 126
e 1 139
e 1 140
e 1 142
e 1 149
e 1 150
e 1 151
e 1 152
e 1 153
e 1 155
e 1 156
e 1 162
e 1 167
e 1 178
e 1 185
e 1 188
e 1 189
e 1 196
e 1 199
e 2 3
e 2 6
e 2 18
e 2 19
e 2 21
e 2 26
e 2 32
e 2 35
e 2 37
e 2 59
e 2 60
e 2 61
e 2 62
e 2 69
e 2 85
e 2 88
e 2 94
e 2 113
e 2 115
e 2 132
e 2 137
e 2 139
e 2 143
e 2 144
e 2 145
e 2 147
e 2 148
e 2 156
e 2 157
e 2 170
e 2 178
e 2 183
e 2 184
e 2 185
e 2 186
e 2 191
e 2 200
e 3 12
e 3 13
e 3 20
e 3 23
e 3 27
e 3 35
e 3 41
e 3 47
e 3 50
e 3 59
e 3 61
e 3 67
e 3 69
e 3 73
e 3 88
e 3 95
e 3 102
e 3 112
e 3 115
e 3 121
e 3 127
e 3 136
e 3 140
e 3 172
e 3 175
e 3 176
e 3 183
e 3 186
e 3 188
e 3 190
e 3 197
e 3 198
e 3 199
e 3 200
e 4 12
e 4 15
e 4 24
e 4 26
e 4 31
e 4 36
e 4 44
e 4 47
e 4 49
e 4 58
e 4 61
e 4 62
e 4 64
e 4 66
e 4 69
e 4 72
e 4 75
e 4 77
e 4 79
e 4 80
e 4 100
e 4 104
e 4 106
e 4 114
e 4 117
e 4 118
e 4 122
e 4 123
e 4 128
e 4 129
e 4 138
e 4 139
e 4 140
e 4 141
e 4 142
e 4 144
e 4 146
e 4 152
e 4 161
e 4 164
e 4 172
e 4 179
e 4 183
e 4 185
e 4 197
e 5 10
e 5 16
e 5 17
e 5 22
e 5 25
e 5 26
e 5 34
e 5 37
e 5 38
e 5 43
e 5 48
e 5 50
e 5 57
e 5 59
e 5 64
e 5 67
e 5 72
e 5 73
e 5 79
e 5 82
e 5 83
e 5 91
e 5 94
e 5 101
e 5 103
e 5 105
e 5 106
e 5 107
e 5 122
e 5 128
e 5 132
e 5 133
e 5 135
e 5 137
e 5 140
e 5 145
e 5 150
e 5 154
e 5 163
e 5 164
e 5 166
e 5 171
e 5 175
e 6 13
e 6 14
e 6 22
e 6 27
e 6 37
e 6 38
e 6 40
e 6 57
e 6 58
e 6 62
e 6 64
e 6 67
e 6 68
e 6 77
e 6 87
e 6 90
e 6 95
e 6 96
e 6 99
e 6 106
e 6 117
e 6 122
e 6 131
e 6 132
e 6 142
e 6 157
e 6 165
e 6 169
e 6 177
e 6 190
e 6 195
e 6 196
e 6 198
e 7 16
e 7 23
e 7 26
e 7 28
e 7 29
e 7 32
e 7 36
e 7 40
e 7 43
e 7 46
e 7 48
e 7 53
e 7 54
e 7 61
e 7 63
e 7 71
e 7 75
e 7 86
e 7 91
e 7 92
e 7 101
e 7 107
e 7 112
e 7 114
e 7 116
e 7 117
e 7 118
e 7 119
e 7 122
e 7 124
e 7 132
e 7 134
e 7 145
e 7 147
e 7 165
e 7 184
e 7 193
e 8 12
e 8 13
e 8 14
e 8 29
e 8 31
e 8 37
e 8 38
e 8 39
e 8 44
e 8 47
e 8 59
e 8 60
e 8 65
e 8 69
e 8 81
e 8 97
e 8 98
e 8 108
e 8 112
e 8 117
e 8 122
e 8 136
e 8 146
e 8 149
e 8 151
e 8 157
e 8 159
e 8 164
e 8 165
e 8 171
e 8 174
e 8 181
e 8 186
e 8 187
e 8 188
e 8 193
e 8 195
e 9 13
e 9 23
e 9 25
e 9 32
e 9 33
e 9 37
e 9 41
e 9 47
e 9 49
e 9 55
e 9 56
e 9 58
e 9 60
e 9 62
e 9 64
e 9 66
e 9 67
e 9 73
e 9 80
e 9 81
e 9 85
e 9 86
e 9 89
e 9 92
e 9 94
e 9 117
e 9 118
e 9 130
e 9 133
e 9 135
e 9 139
e 9 142
e 9 152
e 9 155
e 9 161
e 9 163
e 9 175
e 9 176
e 9 192
e 9 197
e 9 200
e 10 14
e 10 23
e 10 24
e 10 37
e 10 40
e 10 52
e 10 62
e 10 66
e 10 67
e 10 74
e 10 86
e 10 90
e 10 96
e 10 102
e 10 104
e 10 114
e 10 115
e 10 117
e 10 118
e 10 124
e 10 125
e 10 127
e 10 131
e 10 135
e 10 143
e 10 144
e 10 148
e 10 151
e 10 152
e 10 155
e 10 156
e 10 160
e 10 163
e 10 168
e 10 169
e 10 184
e 10 186
e 10 189
e 10 191
e 10 192
e 10 194
e 10 195
e 11 15
e 11 19
e 11 28
e 11 31
e 11 32
e 11 40
e 11 56
e 11 59
e 11 72
e 11 74
e 11 85
e 11 106
e 11 131
e 11 141
e 11 142
e 11 143
e 11 149
e 11 152
e 11 153
e 11 159
e 11 161
e 11 163
e 11 169
e 11 172
e 11 176
e 11 183
e 11 186
e 11 194
e 12 14
e 12 16
e 12 21
e 12 22
e 12 23
e 12 26
e 12 30
e 12 36
e 12 50
e 12 52
e 12 57
e 12 62
e 12 64
e 12 68
e 12 75
e 12 78
e 12 79
e 12 82
e 12 86
e 12 90
e 12 93
e 12 94
e 12 100
e 12 104
e 12 107
e 12 111
e 12 116
e 12 117
e 12 119
e 12 127
e 12 140
e 12 142
e 12 152
e 12 154
e 12 158
e 12 160
e 12 165
e 12 166
e 12 167
e 12 169
e 12 173
e 12 177
e 12 179
e 12 180
e 12 187
e 12 190
e 13 15
e 13 18
e 13 22
e 13 25
e 13 28
e 13 35
e 13 37
e 13 47
e 13 56
e 13 67
e 13 77
e 13 84
e 13 91
e 13 97
e 13 100
e 13 103
e 13 110
e 13 114
e 13 117
e 13 121
e 13 122
e 13 147
e 13 148
e 13 151
e 13 152
e 13 153
e 13 154
e 13 157
e 13 161
e 13 165
e 13 169
e 13 170
e 13 174
e 13 178
e 13 180
e 13 181
e 13 191
e 13 194
e 13 199
e 14 17
e 14 22
e 14 27
e 14 28
e 14 33
e 14 40
e 14 43
e 14 48
e 14 49
e 14 50
e 14 55
e 14 62
e 14 66
e 14 73
e 14 81
e 14 84
e 14 88
e 14 90
e 14 93
e 14 94
e 14 95
e 14 98
e 14 102
e 14 106
e 14 115
e 14 117
e 14 125
e 14 126
e 14 130
e 14 133
e 14 137
e 14 142
e 14 151
e 14 161
e 14 163
e 14 167
e 14 172
e 14 176
e 14 180
e 14 181
e 14 182
e 14 183
e 14 190
e 14 194
e 14 198
e 15 17
e 15 19
e 15 27
e 15 34
e 15 38
e 15 41
e 15 50
e 15 58
e 15 59
e 15 75
e 15 76
e 15 79
e 15 80
e 15 82
e 15 88
e 15 98
e 15 99
e 15 100
e 15 102
e 15 106
e 15 107
e 15 111
e 15 120
e 15 126
e 15 127
e 15 129
e 15 130
e 15 133
e 15 139
e 15 143
e 15 144
e 15 153
e 15 155
e 15 159
e 15 167
e 15 180
e 15 184
e 15 185
e 15 191
e 15 199
e 16 22
e 16 28
e 16 36
e 16 39
e 16 42
e 16 45
e 16 52
e 16 57
e 16 61
e 16 70
e 16 77
e 16 81
e 16 86
e 16 94
e 16 97
e 16 99
e 16 104
e 16 109
e 16 111
e 16 113
e 16 119
e 16 125
e 16 141
e 16 148
e 16 156
e 16 162
e 16 166
e 16 173
e 16 176
e 16 184
e 16 186
e 16 190
e 16 195
e 16 200
e 17 26
e 17 27
e 17 31
e 17 37
e 17 38
e 17 39
e 17 45
e 17 47
e 17 52
e 17 59
e 17 62
e 17 71
e 17 73
e 17 74
e 17 77
e 17 81
e 17 82
e 17 84
e 17 88
e 17 90
e 17 96
e 17 107
e 17 114
e 17 118
e 17 119
e 17 124
e 17 125
e 17 127
e 17 132
e 17 138
e 17 145
e 17 153
e 17 155
e 17 156
e 17 162
e 17 164
e 17 165
e 17 166
e 17 171
e 17 172
e 17 175
e 17 176
e 17 182
e 17 187
e 17 193
e 17 200
e 18 22
e 18 24
e 18 25
e 18 26
e 18 29
e 18 31
e 18 36
e 18 43
e 18 48
e 18 55
e 18 61
e 18 68
e 18 73
e 18 84
e 18 86
e 18 93
e 18 97
e 18 101
e 18 104
e 18 107
e 18 108
e 18 112
e 18 118
e 18 119
e 18 125
e 18 129
e 18 151
e 18 152
e 18 155
e 18 162
e 18 170
e 18 173
e 18 175
e 18 176
e 18 177
e 18 180
e 18 194
e 18 200
e 19 21
e 19 22
e 19 26
e 19 32
e 19 40
e 19 45
e 19 58
e 19 61
e 19 63
e 19 68
e 19 75
e 19 77
e 19 79
e 19 86
e 19 99
e 19 105
e 19 109
e 19 110
e 19 118
e 19 119
e 19 122
e 19 125
e 19 126
e 19 127
e 19 132
e 19 138
e 19 142
e 19 150
e 19 155
e 19 157
e 19 162
e 19 169
e 19 176
e 19 183
e 19 196
e 19 200
e 20 24
e 20 27
e 20 31
e 20 36
e 20 37
e 20 39
e 20 42
e 20 46
e 20 49
e 20 53
e 20 54
e 20 56
e 20 58
e 20 82
e 20 95
e 20 96
e 20 98
e 20 101
e 20 103
e 20 107
e 20 120
e 20 126
e 20 130
e 20 131
e 20 134
e 20 140
e 20 143
e 20 145
e 20 147
e 20 154
e 20 157
e 20 161
e 20 164
e 20 166
e 20 173
e 20 174
e 20 175
e 20 183
e 20 185
e 20 191
e 20 199
e 21 29
e 21 38
e 21 41
e 21 52
e 21 60
e 21 63
e 21 66
e 21 67
e 21 68
e 21 71
e 21 74
e 21 75
e 21 80
e 21 82
e 21 87
e 21 88
e 21 89
e 21 92
e 21 93
e 21 96
e 21 97
e 21 102
e 21 116
e 21 117
e 21 119
e 21 122
e 21 125
e 21 134
e 21 137
e 21 138
e 21 145
e 21 146
e 21 148
e 21 153
e 21 156
e 21 174
e 21 175
e 21 176
e 21 177
e 21 184
e 21 190
e 21 195
e 21 196
e 22 23
e 22 26
e 22 27
e 22 28
e 22 29
e 22 35
e 22 38
e 22 45
e 22 48
e 22 52
e 22 57
e 22 60
e 22 69
e 22 70
e 22 73
e 22 76
e 22 95
e 22 99
e 22 100
e 22 101
e 22 117
e 22 121
e 22 130
e 22 150
e 22 157
e 22 161
e 22 175
e 22 186
e 22 187
e 22 194
e 23 25
e 23 41
e 23 46
e 23 52
e 23 56
e 23 57
e 23 71
e 23 77
e 23 80
e 23 81
e 23 86
e 23 94
e 23 96
e 23 108
e 23 111
e 23 112
e 23 118
e 23 121
e 23 128
e 23 129
e 23 138
e 23 140
e 23 143
e 23 150
e 23 152
e 23 157
e 23 160
e 23 165
e 23 175
e 23 179
e 23 181
e 23 194
e 23 196
e 23 199
e 24 31
e 24 40
e 24 43
e 24 45
e 24 46
e 24 49
e 24 54
e 24 56
e 24 60
e 24 64
e 24 68
e 24 73
e 24 79
e 24 94
e 24 96
e 24 100
e 24 101
e 24 106
e 24 108
e 24 109
e 24 110
e 24 113
e 24 114
e 24 115
e 24 120
e 24 121
e 24 122
e 24 123
e 24 127
e 24 135
e 24 148
e 24 149
e 24 150
e 24 152
e 24 153
e 24 162
e 24 164
e 24 166
e 24 167
e 24 171
e 24 175
e 24 183
e 24 187
e 24 190
e 24 191
e 24 195
e 25 36
e 25 54
e 25 56
e 25 57
e 25 62
e 25 65
e 25 75
e 25 79
e 25 84
e 25 85
e 25 89
e 25 90
e 25 100
e 25 106
e 25 107
e 25 117
e 25 120
e 25 123
e 25 126
e 25 131
e 25 141
e 25 144
e 25 146
e 25 148
e 25 154
e 25 162
e 25 164
e 25 167
e 25 170
e 25 174
e 25 177
e 25 186
e 25 187
e 25 194
e 26 27
e 26 28
e 26 30
e 26 33
e 26 35
e 26 37
e 26 40
e 26 41
e 26 45
e 26 54
e 26 56
e 26 63
e 26 67
e 26 70
e 26 74
e 26 82
e 26 90
e 26 102
e 26 106
e 26 107
e 26 109
e 26 125
e 26 126
e 26 139
e 26 142
e 26 147
e 26 157
e 26 165
e 26 168
e 26 173
e 26 175
e 26 177
e 26 184
e 26 199
e 27 28
e 27 30
e 27 33
e 27 38
e 27 40
e 27 41
e 27 47
e 27 49
e 27 60
e 27 64
e 27 71
e 27 75
e 27 86
e 27 95
e 27 97
e 27 99
e 27 103
e 27 107
e 27 109
e 27 117
e 27 118
e 27 122
e 27 129
e 27 130
e 27 134
e 27 138
e 27 142
e 27 147
e 27 160
e 27 167
e 27 183
e 27 184
e 27 186
e 27 187
e 27 189
e 27 190
e 27 200
e 28 29
e 28 33
e 28 39
e 28 44
e 28 47
e 28 49
e 28 50
e 28 57
e 28 59
e 28 60
e 28 61
e 28 64
e 28 68
e 28 76
e 28 85
e 28 87
e 28 89
e 28 92
e 28 93
e 28 98
e 28 102
e 28 107
e 28 112
e 28 119
e 28 124
e 28 128
e 28 131
e 28 132
e 28 133
e 28 134
e 28 135
e 28 136
e 28 141
e 28 143
e 28 146
e 28 154
e 28 163
e 28 167
e 28 168
e 28 169
e 28 176
e 28 189
e 28 200
e 29 34
e 29 36
e 29 38
e 29 41
e 29 47
e 29 48
e 29 53
e 29 55
e 29 58
e 29 59
e 29 61
e 29 69
e 29 77
e 29 79
e 29 81
e 29 83
e 29 86
e 29 104
e 29 107
e 29 112
e 29 121
e 29 123
e 29 128
e 29 134
e 29 139
e 29 152
e 29 156
e 29 157
e 29 161
e 29 163
e 29 165
e 29 166
e 29 168
e 29 169
e 29 174
e 29 178
e 29 179
e 29 183
e 29 188
e 29 191
e 29 193
e 30 37
e 30 38
e 30 42
e 30 44
e 30 51
e 30 53
e 30 56
e 30 62
e 30 63
e 30 64
e 30 65
e 30 68
e 30 86
e 30 91
e 30 94
e 30 104
e 30 109
e 30 121
e 30 122
e 30 125
e 30 126
e 30 127
e 30 132
e 30 136
e 30 139
e 30 144
e 30 155
e 30 172
e 30 176
e 30 179
e 30 187
e 30 188
e 30 193
e 31 32
e 31 43
e 31 45
e 31 48
e 31 49
e 31 50
e 31 52
e 31 56
e 31 57
e 31 58
e 31 66
e 31 71
e 31 77
e 31 79
e 31 82
e 31 87
e 31 101
e 31 103
e 31 107
e 31 111
e 31 113
e 31 117
e 31 142
e 31 145
e 31 154
e 31 156
e 31 162
e 31 168
e 31 172
e 31 173
e 31 175
e 31 176
e 31 177
e 31 180
e 31 190
e 31 195
e 32 35
e 32 40
e 32 43
e 32 49
e 32 50
e 32 51
e 32 52
e 32 69
e 32 72
e 32 74
e 32 81
e 32 82
e 32 87
e 32 92
e 32 100
e 32 102
e 32 104
e 32 110
e 32 115
e 32 121
e 32 124
e 32 125
e 32 126
e 32 139
e 32 141
e 32 143
e 32 146
e 32 148
e 32 149
e 32 150
e 32 151
e 32 161
e 32 163
e 32 171
e 32 176
e 32 178
e 32 179
e 32 187
e 32 188
e 32 189
e 32 192
e 32 196
e 32 200
e 33 48
e 33 51
e 33 61
e 33 67
e 33 71
e 33 73
e 33 76
e 33 79
e 33 80
e 33 86
e 33 88
e 33 91
e 33 96
e 33 99
e 33 105
e 33 109
e 33 110
e 33 111
e 33 113
e 33 120
e 33 124
e 33 126
e 33 134
e 33 137
e 33 139
e 33 140
e 33 145
e 33 151
e 33 162
e 33 163
e 33 165
e 33 166
e 33 169
e 33 172
e 33 173
e 33 182
e 33 195
e 33 196
e 33 197
e 33 198
e 33 199
e 34 35
e 34 36
e 34 40
e 34 44
e 34 45
e 34 55
e 34 56
e 34 59
e 34 61
e 34 67
e 34 74
e 34 77
e 34 81
e 34 82
e 34 85
e 34 88
e 34 89
e 34 90
e 34 93
e 34 106
e 34 109
e 34 111
e 34 118
e 34 128
e 34 129
e 34 134
e 34 146
e 34 150
e 34 151
e 34 153
e 34 154
e 34 155
e 34 156
e 34 157
e 34 158
e 34 171
e 34 172
e 34 182
e 34 187
e 34 192
e 34 194
e 34 195
e 34 196
e 34 197
e 35 36
e 35 39
e 35 40
e 35 41
e 35 42
e 35 48
e 35 50
e 35 51
e 35 56
e 35 66
e 35 68
e 35 81
e 35 86
e 35 91
e 35 93
e 35 100
e 35 101
e 35 104
e 35 107
e 35 116
e 35 120
e 35 131
e 35 138
e 35 145
e 35 149
e 35 164
e 35 165
e 35 173
e 35 191
e 35 192
e 35 200
e 36 40
e 36 46
e 36 50
e 36 58
e 36 59
e 36 61
e 36 70
e 36 74
e 36 89
e 36 91
e 36 92
e 36 95
e 36 97
e 36 103
e 36 114
e 36 117
e 36 121
e 36 126
e 36 130
e 36 135
e 36 137
e 36 142
e 36 145
e 36 156
e 36 158
e 36 162
e 36 163
e 36 186
e 36 198
e 36 199
e 36 200
e 37 46
e 37 58
e 37 59
e 37 63
e 37 67
e 37 68
e 37 69
e 37 72
e 37 78
e 37 85
e 37 87
e 37 92
e 37 96
e 37 100
e 37 109
e 37 120
e 37 123
e 37 127
e 37 132
e 37 137
e 37 139
e 37 140
e 37 147
e 37 151
e 37 156
e 37 157
e 37 160
e 37 167
e 37 181
e 37 183
e 37 186
e 37 187
e 38 41
e 38 44
e 38 61
e 38 68
e 38 71
e 38 72
e 38 78
e 38 88
e 38 90
e 38 102
e 38 111
e 38 112
e 38 116
e 38 121
e 38 122
e 38 127
e 38 129
e 38 134
e 38 136
e 38 144
e 38 147
e 38 152
e 38 156
e 38 163
e 38 167
e 38 168
e 38 169
e 38 174
e 38 179
e 38 180
e 38 181
e 38 185
e 38 191
e 39 40
e 39 41
e 39 45
e 39 46
e 39 50
e 39 52
e 39 59
e 39 64
e 39 65
e 39 69
e 39 73
e 39 80
e 39 81
e 39 85
e 39 87
e 39 89
e 39 97
e 39 108
e 39 136
e 39 138
e 39 143
e 39 149
e 39 163
e 39 173
e 39 179
e 39 183
e 39 184
e 39 190
e 39 194
e 39 195
e 39 196
e 40 41
e 40 47
e 40 53
e 40 55
e 40 62
e 40 65
e 40 69
e 40 76
e 40 80
e 40 83
e 40 85
e 40 89
e 40 92
e 40 96
e 40 98
e 40 101
e 40 114
e 40 116
e 40 117
e 40 120
e 40 126
e 40 127
e 40 128
e 40 134
e 40 139
e 40 151
e 40 159
e 40 162
e 40 166
e 40 167
e 40 181
e 40 191
e 40 192
e 40 194
e 40 199
e 41 46
e 41 47
e 41 61
e 41 72
e 41 76
e 41 77
e 41 80
e 41 84
e 41 90
e 41 92
e 41 98
e 41 99
e 41 100
e 41 101
e 41 109
e 41 112
e 41 115
e 41 136
e 41 143
e 41 144
e 41 148
e 41 149
e 41 152
e 41 164
e 41 167
e 41 174
e 41 181
e 41 196
e 41 200
e 42 45
e 42 47
e 42 53
e 42 59
e 42 60
e 42 68
e 42 73
e 42 79
e 42 87
e 42 90
e 42 92
e 42 93
e 42 94
e 42 104
e 42 105
e 42 106
e 42 108
e 42 109
e 42 110
e 42 116
e 42 118
e 42 119
e 42 130
e 42 134
e 42 138
e 42 141
e 42 143
e 42 157
e 42 162
e 42 168
e 42 173
e 42 180
e 42 190
e 42 191
e 42 193
e 42 197
e 42 199
e 43 58
e 43 62
e 43 64
e 43 65
e 43 66
e 43 67
e 43 75
e 43 82
e 43 90
e 43 92
e 43 99
e 43 105
e 43 110
e 43 117
e 43 119
e 43 123
e 43 124
e 43 126
e 43 138
e 43 141
e 43 150
e 43 164
e 43 167
e 43 173
e 43 177
e 43 185
e 43 189
e 43 192
e 43 195
e 43 197
e 43 198
e 44 47
e 44 52
e 44 53
e 44 54
e 44 56
e 44 65
e 44 69
e 44 74
e 44 78
e 44 82
e 44 86
e 44 94
e 44 95
e 44 97
e 44 100
e 44 101
e 44 103
e 44 106
e 44 111
e 44 114
e 44 117
e 44 118
e 44 123
e 44 126
e 44 136
e 44 148
e 44 149
e 44 155
e 44 161
e 44 163
e 44 177
e 44 178
e 44 185
e 44 188
e 44 193
e 44 197
e 44 200
e 45 48
e 45 49
e 45 50
e 45 57
e 45 59
e 45 62
e 45 63
e 45 75
e 45 93
e 45 100
e 45 102
e 45 109
e 45 118
e 45 123
e 45 126
e 45 129
e 45 130
e 45 133
e 45 136
e 45 138
e 45 139
e 45 148
e 45 151
e 45 155
e 45 175
e 45 176
e 45 181
e 46 47
e 46 48
e 46 49
e 46 53
e 46 55
e 46 63
e 46 64
e 46 76
e 46 79
e 46 88
e 46 93
e 46 100
e 46 101
e 46 102
e 46 107
e 46 113
e 46 115
e 46 125
e 46 135
e 46 136
e 46 137
e 46 147
e 46 148
e 46 149
e 46 159
e 46 164
e 46 165
e 46 166
e 46 167
e 46 168
e 46 172
e 46 173
e 46 178
e 46 188
e 47 52
e 47 55
e 47 56
e 47 57
e 47 61
e 47 63
e 47 67
e 47 69
e 47 70
e 47 72
e 47 76
e 47 78
e 47 90
e 47 97
e 47 99
e 47 100
e 47 103
e 47 105
e 47 107
e 47 112
e 47 119
e 47 123
e 47 124
e 47 130
e 47 131
e 47 134
e 47 140
e 47 143
e 47 146
e 47 149
e 47 161
e 47 162
e 47 164
e 47 165
e 47 167
e 47 169
e 47 171
e 47 175
e 47 176
e 47 181
e 47 184
e 47 186
e 48 50
e 48 58
e 48 66
e 48 70
e 48 81
e 48 84
e 48 90
e 48 96
e 48 98
e 48 99
e 48 105
e 48 108
e 48 109
e 48 110
e 48 118
e 48 120
e 48 130
e 48 134
e 48 153
e 48 158
e 48 160
e 48 163
e 48 167
e 48 184
e 48 188
e 48 191
e 48 192
e 49 50
e 49 63
e 49 69
e 49 73
e 49 84
e 49 87
e 49 95
e 49 97
e 49 99
e 49 100
e 49 105
e 49 107
e 49 112
e 49 121
e 49 132
e 49 137
e 49 140
e 49 142
e 49 143
e 49 144
e 49 149
e 49 150
e 49 151
e 49 157
e 49 160
e 49 164
e 49 166
e 49 169
e 49 170
e 49 176
e 49 177
e 49 180
e 49 184
e 49 185
e 49 200
e 50 51
e 50 53
e 50 55
e 50 63
e 50 67
e 50 75
e 50 78
e 50 86
e 50 90
e 50 92
e 50 93
e 50 96
e 50 98
e 50 99
e 50 100
e 50 101
e 50 102
e 50 104
e 50 105
e 50 107
e 50 109
e 50 120
e 50 122
e 50 135
e 50 141
e 50 149
e 50 153
e 50 154
e 50 160
e 50 167
e 50 174
e 50 179
e 50 180
e 50 182
e 50 190
e 50 197
e 50 199
e 51 52
e 51 65
e 51 81
e 51 86
e 51 94
e 51 100
e 51 101
e 51 105
e 51 106
e 51 109
e 51 111
e 51 123
e 51 125
e 51 136
e 51 138
e 51 143
e 51 144
e 51 146
e 51 147
e 51 168
e 51 173
e 51 174
e 51 180
e 51 181
e 51 183
e 51 184
e 51 189
e 52 55
e 52 58
e 52 64
e 52 65
e 52 69
e 52 74
e 52 76
e 52 81
e 52 83
e 52 84
e 52 92
e 52 95
e 52 98
e 52 99
e 52 104
e 52 111
e 52 119
e 52 124
e 52 126
e 52 132
e 52 140
e 52 154
e 52 155
e 52 161
e 52 164
e 52 166
e 52 173
e 52 176
e 52 179
e 52 181
e 52 186
e 53 65
e 53 67
e 53 85
e 53 87
e 53 91
e 53 96
e 53 97
e 53 98
e 53 104
e 53 111
e 53 118
e 53 123
e 53 134
e 53 144
e 53 148
e 53 152
e 53 156
e 53 157
e 53 174
e 53 177
e 53 178
e 53 180
e 53 181
e 53 187
e 53 188
e 53 192
e 53 200
e 54 68
e 54 94
e 54 105
e 54 111
e 54 114
e 54 115
e 54 125
e 54 128
e 54 130
e 54 131
e 54 138
e 54 145
e 54 152
e 54 155
e 54 181
e 55 66
e 55 68
e 55 72
e 55 85
e 55 94
e 55 96
e 55 100
e 55 106
e 55 117
e 55 121
e 55 122
e 55 123
e 55 127
e 55 128
e 55 129
e 55 136
e 55 150
e 55 151
e 55 164
e 55 172
e 55 176
e 55 178
e 55 182
e 55 187
e 55 189
e 56 62
e 56 70
e 56 74
e 56 85
e 56 100
e 56 108
e 56 118
e 56 142
e 56 143
e 56 146
e 56 153
e 56 159
e 56 165
e 56 175
e 56 183
e 56 187
e 56 189
e 56 192
e 57 60
e 57 64
e 57 70
e 57 73
e 57 75
e 57 88
e 57 93
e 57 97
e 57 102
e 57 113
e 57 132
e 57 133
e 57 135
e 57 147
e 57 150
e 57 155
e 57 159
e 57 162
e 57 163
e 57 184
e 57 190
e 57 196
e 57 197
e 57 200
e 58 68
e 58 75
e 58 83
e 58 86
e 58 92
e 58 95
e 58 101
e 58 104
e 58 111
e 58 112
e 58 117
e 58 121
e 58 127
e 58 131
e 58 148
e 58 156
e 58 158
e 58 160
e 58 163
e 58 165
e 58 166
e 58 177
e 58 179
e 58 180
e 58 181
e 58 183
e 58 186
e 58 193
e 58 196
e 59 68
e 59 69
e 59 71
e 59 83
e 59 84
e 59 86
e 59 93
e 59 101
e 59 104
e 59 108
e 59 118
e 59 121
e 59 144
e 59 159
e 59 161
e 59 174
e 59 184
e 59 191
e 59 194
e 59 198
e 60 67
e 60 73
e 60 76
e 60 82
e 60 83
e 60 86
e 60 87
e 60 92
e 60 116
e 60 118
e 60 126
e 60 129
e 60 138
e 60 144
e 60 158
e 60 159
e 60 160
e 60 161
e 60 167
e 60 171
e 60 174
e 60 179
e 60 180
e 60 181
e 60 184
e 60 188
e 60 190
e 60 198
e 60 200
e 61 63
e 61 64
e 61 65
e 61 76
e 61 80
e 61 82
e 61 97
e 61 100
e 61 101
e 61 111
e 61 118
e 61 122
e 61 128
e 61 132
e 61 136
e 61 137
e 61 150
e 61 154
e 61 156
e 61 159
e 61 161
e 61 168
e 61 169
e 61 170
e 61 172
e 61 176
e 61 179
e 61 188
e 61 189
e 61 195
e 61 197
e 61 198
e 62 65
e 62 70
e 62 74
e 62 82
e 62 84
e 62 87
e 62 90
e 62 95
e 62 96
e 62 104
e 62 109
e 62 121
e 62 129
e 62 133
e 62 134
e 62 137
e 62 145
e 62 155
e 62 159
e 62 165
e 62 166
e 62 167
e 62 169
e 62 170
e 62 183
e 62 189
e 62 191
e 62 193
e 62 194
e 63 72
e 63 77
e 63 78
e 63 80
e 63 82
e 63 83
e 63 92
e 63 94
e 63 98
e 63 108
e 63 110
e 63 116
e 63 119
e 63 127
e 63 128
e 63 130
e 63 134
e 63 136
e 63 158
e 63 161
e 63 163
e 63 164
e 63 166
e 63 170
e 63 174
e 63 184
e 63 190
e 63 192
e 63 194
e 63 195
e 64 67
e 64 69
e 64 75
e 64 77
e 64 78
e 64 83
e 64 84
e 64 88
e 64 96
e 64 99
e 64 100
e 64 102
e 64 107
e 64 109
e 64 113
e 64 118
e 64 120
e 64 129
e 64 130
e 64 132
e 64 134
e 64 136
e 64 137
e 64 145
e 64 147
e 64 151
e 64 152
e 64 153
e 64 161
e 64 174
e 64 179
e 64 195
e 65 69
e 65 84
e 65 100
e 65 112
e 65 113
e 65 114
e 65 116
e 65 124
e 65 130
e 65 134
e 65 141
e 65 156
e 65 161
e 65 163
e 65 175
e 65 176
e 65 177
e 65 186
e 65 191
e 65 195
e 65 200
e 66 69
e 66 70
e 66 79
e 66 82
e 66 83
e 66 84
e 66 99
e 66 102
e 66 103
e 66 107
e 66 111
e 66 113
e 66 118
e 66 119
e 66 128
e 66 130
e 66 140
e 66 154
e 66 156
e 66 159
e 66 160
e 66 172
e 66 184
e 66 190
e 67 75
e 67 76
e 67 79
e 67 90
e 67 92
e 67 101
e 67 102
e 67 108
e 67 111
e 67 114
e 67 126
e 67 129
e 67 130
e 67 132
e 67 137
e 67 144
e 67 145
e 67 152
e 67 155
e 67 174
e 67 175
e 67 179
e 67 192
e 68 77
e 68 88
e 68 90
e 68 96
e 68 100
e 68 105
e 68 113
e 68 116
e 68 118
e 68 120
e 68 121
e 68 124
e 68 129
e 68 137
e 68 140
e 68 141
e 68 146
e 68 149
e 68 160
e 68 162
e 68 167
e 68 183
e 68 187
e 68 192
e 68 193
e 68 195
e 68 199
e 69 71
e 69 72
e 69 78
e 69 93
e 69 97
e 69 99
e 69 102
e 69 108
e 69 111
e 69 120
e 69 124
e 69 127
e 69 129
e 69 132
e 69 133
e 69 134
e 69 142
e 69 150
e 69 156
e 69 168
e 69 172
e 69 174
e 69 179
e 69 186
e 69 195
e 69 197
e 70 81
e 70 85
e 70 89
e 70 97
e 70 98
e 70 100
e 70 114
e 70 115
e 70 119
e 70 141
e 70 145
e 70 151
e 70 153
e 70 161
e 70 163
e 70 165
e 70 171
e 70 173
e 70 177
e 70 186
e 70 192
e 70 196
e 70 197
e 71 81
e 71 111
e 71 122
e 71 127
e 71 131
e 71 137
e 71 139
e 71 143
e 71 149
e 71 152
e 71 154
e 71 157
e 71 161
e 71 183
e 71 185
e 71 191
e 71 193
e 71 198
e 72 81
e 72 82
e 72 84
e 72 107
e 72 110
e 72 114
e 72 120
e 72 125
e 72 131
e 72 133
e 72 134
e 72 137
e 72 149
e 72 153
e 72 158
e 72 164
e 72 166
e 72 179
e 72 183
e 72 186
e 72 192
e 72 194
e 73 77
e 73 79
e 73 80
e 73 90
e 73 95
e 73 97
e 73 99
e 73 102
e 73 103
e 73 105
e 73 110
e 73 111
e 73 114
e 73 120
e 73 129
e 73 131
e 73 138
e 73 139
e 73 148
e 73 157
e 73 160
e 73 164
e 73 166
e 73 167
e 73 181
e 73 188
e 73 190
e 73 194
e 73 196
e 73 198
e 73 200
e 74 82
e 74 84
e 74 85
e 74 97
e 74 99
e 74 102
e 74 114
e 74 115
e 74 116
e 74 117
e 74 118
e 74 127
e 74 130
e 74 131
e 74 132
e 74 135
e 74 137
e 74 145
e 74 148
e 74 151
e 74 153
e 74 157
e 74 158
e 74 162
e 74 164
e 74 166
e 74 172
e 74 173
e 74 189
e 74 197
e 75 83
e 75 95
e 75 100
e 75 102
e 75 103
e 75 104
e 75 107
e 75 110
e 75 121
e 75 122
e 75 132
e 75 138
e 75 141
e 75 142
e 75 146
e 75 154
e 75 157
e 75 158
e 75 160
e 75 169
e 75 174
e 75 180
e 75 185
e 75 186
e 75 189
e 75 192
e 76 78
e 76 79
e 76 80
e 76 81
e 76 85
e 76 89
e 76 91
e 76 95
e 76 111
e 76 119
e 76 124
e 76 126
e 76 127
e 76 128
e 76 129
e 76 136
e 76 141
e 76 147
e 76 153
e 76 154
e 76 156
e 76 160
e 76 166
e 76 177
e 76 187
e 76 189
e 76 190
e 76 195
e 76 197
e 76 198
e 77 81
e 77 82
e 77 84
e 77 86
e 77 92
e 77 94
e 77 96
e 77 99
e 77 113
e 77 122
e 77 127
e 77 129
e 77 132
e 77 136
e 77 140
e 77 143
e 77 146
e 77 158
e 77 160
e 77 187
e 78 82
e 78 88
e 78 91
e 78 97
e 78 100
e 78 102
e 78 109
e 78 121
e 78 122
e 78 124
e 78 127
e 78 131
e 78 134
e 78 138
e 78 141
e 78 142
e 78 143
e 78 145
e 78 147
e 78 149
e 78 150
e 78 151
e 78 160
e 78 161
e 78 163
e 78 164
e 78 165
e 78 166
e 78 168
e 78 178
e 78 186
e 78 192
e 78 197
e 78 198
e 78 199
e 79 88
e 79 89
e 79 90
e 79 93
e 79 94
e 79 102
e 79 106
e 79 110
e 79 113
e 79 115
e 79 130
e 79 151
e 79 152
e 79 156
e 79 159
e 79 174
e 79 176
e 79 178
e 79 184
e 79 195
e 79 199
e 79 200
e 80 83
e 80 88
e 80 94
e 80 98
e 80 102
e 80 109
e 80 110
e 80 116
e 80 124
e 80 129
e 80 133
e 80 136
e 80 141
e 80 147
e 80 150
e 80 151
e 80 161
e 80 162
e 80 164
e 80 167
e 80 173
e 80 177
e 80 184
e 80 185
e 80 189
e 80 194
e 81 87
e 81 98
e 81 104
e 81 105
e 81 107
e 81 113
e 81 114
e 81 118
e 81 119
e 81 132
e 81 136
e 81 140
e 81 143
e 81 145
e 81 149
e 81 152
e 81 153
e 81 157
e 81 160
e 81 169
e 81 171
e 81 175
e 81 181
e 81 182
e 81 190
e 82 88
e 82 91
e 82 93
e 82 113
e 82 118
e 82 120
e 82 124
e 82 128
e 82 138
e 82 141
e 82 149
e 82 151
e 82 158
e 82 161
e 82 163
e 82 167
e 82 177
e 82 178
e 82 179
e 82 186
e 82 190
e 83 84
e 83 89
e 83 90
e 83 96
e 83 110
e 83 111
e 83 116
e 83 120
e 83 128
e 83 132
e 83 142
e 83 143
e 83 161
e 83 162
e 83 164
e 83 170
e 83 175
e 83 185
e 83 196
e 83 199
e 84 86
e 84 92
e 84 97
e 84 108
e 84 109
e 84 117
e 84 118
e 84 119
e 84 122
e 84 124
e 84 126
e 84 130
e 84 133
e 84 140
e 84 145
e 84 150
e 84 169
e 84 181
e 84 182
e 84 183
e 84 184
e 84 195
e 84 196
e 85 86
e 85 93
e 85 97
e 85 101
e 85 114
e 85 115
e 85 118
e 85 126
e 85 132
e 85 136
e 85 149
e 85 153
e 85 155
e 85 159
e 85 160
e 85 169
e 85 177
e 85 180
e 85 182
e 85 186
e 85 187
e 85 192
e 85 197
e 86 92
e 86 97
e 86 100
e 86 108
e 86 111
e 86 114
e 86 116
e 86 117
e 86 138
e 86 148
e 86 161
e 86 163
e 86 174
e 86 188
e 86 190
e 86 191
e 86 192
e 86 196
e 87 89
e 87 103
e 87 106
e 87 111
e 87 114
e 87 118
e 87 126
e 87 139
e 87 140
e 87 143
e 87 150
e 87 155
e 87 163
e 87 164
e 87 183
e 87 192
e 87 197
e 88 93
e 88 105
e 88 106
e 88 111
e 88 114
e 88 124
e 88 127
e 88 134
e 88 141
e 88 143
e 88 144
e 88 161
e 88 168
e 88 170
e 88 172
e 88 174
e 88 175
e 88 196
e 88 199
e 89 93
e 89 98
e 89 100
e 89 101
e 89 105
e 89 107
e 89 115
e 89 126
e 89 131
e 89 133
e 89 143
e 89 148
e 89 152
e 89 155
e 89 159
e 89 164
e 89 166
e 89 168
e 89 174
e 89 178
e 89 179
e 89 180
e 89 181
e 89 189
e 89 192
e 89 194
e 90 95
e 90 101
e 90 107
e 90 109
e 90 117
e 90 120
e 90 121
e 90 124
e 90 125
e 90 156
e 90 163
e 90 174
e 90 177
e 90 191
e 90 196
e 90 197
e 91 92
e 91 98
e 91 100
e 91 101
e 91 108
e 91 120
e 91 124
e 91 125
e 91 126
e 91 134
e 91 141
e 91 155
e 91 157
e 91 164
e 91 173
e 91 181
e 91 182
e 91 183
e 91 184
e 91 187
e 91 199
e 92 105
e 92 114
e 92 116
e 92 117
e 92 129
e 92 131
e 92 138
e 92 140
e 92 143
e 92 161
e 92 175
e 92 180
e 92 193
e 92 198
e 92 199
e 93 113
e 93 118
e 93 120
e 93 122
e 93 125
e 93 128
e 93 134
e 93 135
e 93 147
e 93 151
e 93 163
e 93 165
e 93 190
e 93 191
e 93 200
e 94 97
e 94 102
e 94 106
e 94 107
e 94 110
e 94 124
e 94 134
e 94 139
e 94 152
e 94 154
e 94 161
e 94 163
e 94 170
e 94 175
e 94 182
e 94 185
e 94 186
e 94 187
e 94 188
e 94 192
e 94 193
e 94 195
e 94 197
e 95 108
e 95 109
e 95 110
e 95 112
e 95 115
e 95 117
e 95 123
e 95 124
e 95 137
e 95 140
e 95 141
e 95 150
e 95 151
e 95 160
e 95 162
e 95 170
e 95 171
e 95 178
e 95 183
e 95 191
e 95 195
e 96 101
e 96 102
e 96 104
e 96 105
e 96 110
e 96 111
e 96 115
e 96 126
e 96 131
e 96 134
e 96 140
e 96 142
e 96 145
e 96 146
e 96 148
e 96 149
e 96 166
e 96 168
e 96 173
e 96 174
e 96 186
e 96 189
e 96 197
e 96 198
e 96 199
e 97 100
e 97 102
e 97 108
e 97 113
e 97 115
e 97 118
e 97 123
e 97 130
e 97 132
e 97 135
e 97 137
e 97 138
e 97 140
e 97 141
e 97 148
e 97 156
e 97 157
e 97 158
e 97 159
e 97 162
e 97 166
e 97 173
e 97 181
e 97 186
e 97 199
e 98 99
e 98 106
e 98 108
e 98 111
e 98 127
e 98 128
e 98 131
e 98 137
e 98 138
e 98 141
e 98 144
e 98 157
e 98 159
e 98 161
e 98 162
e 98 165
e 98 170
e 98 188
e 98 189
e 98 195
e 98 196
e 98 200
e 99 101
e 99 102
e 99 105
e 99 113
e 99 116
e 99 117
e 99 122
e 99 125
e 99 127
e 99 131
e 99 139
e 99 147
e 99 148
e 99 149
e 99 150
e 99 151
e 99 155
e 99 157
e 99 164
e 99 173
e 99 186
e 99 193
e 99 200
e 100 101
e 100 110
e 100 114
e 100 116
e 100 122
e 100 123
e 100 131
e 100 137
e 100 138
e 100 146
e 100 150
e 100 151
e 100 152
e 100 158
e 100 163
e 100 164
e 100 165
e 100 167
e 100 169
e 100 175
e 100 176
e 100 178
e 100 184
e 100 185
e 100 189
e 100 190
e 100 198
e 101 102
e 101 109
e 101 110
e 101 112
e 101 114
e 101 121
e 101 127
e 101 130
e 101 131
e 101 132
e 101 133
e 101 138
e 101 140
e 101 142
e 101 153
e 101 154
e 101 157
e 101 160
e 101 162
e 101 165
e 101 173
e 101 176
e 101 184
e 101 191
e 101 197
e 102 112
e 102 115
e 102 116
e 102 121
e 102 136
e 102 141
e 102 143
e 102 148
e 102 157
e 102 160
e 102 164
e 102 167
e 102 173
e 102 178
e 102 179
e 102 186
e 102 187
e 102 188
e 102 191
e 103 108
e 103 109
e 103 113
e 103 124
e 103 126
e 103 132
e 103 135
e 103 137
e 103 144
e 103 148
e 103 151
e 103 161
e 103 162
e 103 164
e 103 184
e 103 185
e 103 191
e 103 193
e 103 195
e 104 105
e 104 107
e 104 108
e 104 110
e 104 111
e 104 115
e 104 118
e 104 123
e 104 130
e 104 143
e 104 144
e 104 146
e 104 149
e 104 158
e 104 159
e 104 174
e 104 178
e 104 180
e 104 182
e 104 192
e 104 193
e 105 106
e 105 112
e 105 131
e 105 133
e 105 134
e 105 139
e 105 143
e 105 146
e 105 151
e 105 156
e 105 161
e 105 163
e 105 169
e 105 172
e 105 173
e 105 179
e 105 182
e 105 183
e 105 194
e 105 197
e 105 198
e 105 199
e 106 113
e 106 119
e 106 122
e 106 123
e 106 124
e 106 125
e 106 126
e 106 128
e 106 130
e 106 134
e 106 136
e 106 137
e 106 138
e 106 140
e 106 145
e 106 149
e 106 152
e 106 156
e 106 157
e 106 158
e 106 162
e 106 165
e 106 172
e 106 174
e 106 181
e 106 182
e 106 185
e 106 186
e 106 190
e 106 195
e 106 198
e 107 110
e 107 113
e 107 114
e 107 115
e 107 116
e 107 117
e 107 119
e 107 120
e 107 124
e 107 125
e 107 128
e 107 129
e 107 130
e 107 132
e 107 136
e 107 141
e 107 147
e 107 153
e 107 154
e 107 159
e 107 161
e 107 163
e 107 167
e 107 169
e 107 172
e 107 180
e 107 191
e 107 194
e 107 195
e 107 197
e 107 199
e 108 116
e 108 117
e 108 119
e 108 121
e 108 130
e 108 131
e 108 140
e 108 147
e 108 153
e 108 156
e 108 159
e 108 160
e 108 161
e 108 163
e 108 164
e 108 167
e 108 176
e 108 182
e 108 191
e 108 198
e 109 113
e 109 117
e 109 119
e 109 121
e 109 122
e 109 124
e 109 126
e 109 130
e 109 134
e 109 138
e 109 145
e 109 150
e 109 156
e 109 163
e 109 167
e 109 168
e 109 169
e 109 173
e 109 178
e 109 182
e 109 189
e 109 190
e 109 197
e 109 198
e 110 111
e 110 121
e 110 123
e 110 127
e 110 139
e 110 140
e 110 155
e 110 156
e 110 164
e 110 167
e 110 170
e 110 175
e 110 191
e 110 195
e 111 114
e 111 115
e 111 116
e 111 118
e 111 128
e 111 129
e 111 146
e 111 162
e 111 170
e 111 174
e 111 178
e 111 181
e 111 185
e 111 194
e 112 114
e 112 121
e 112 122
e 112 134
e 112 138
e 112 142
e 112 146
e 112 149
e 112 157
e 112 178
e 112 185
e 112 191
e 112 192
e 112 193
e 112 198
e 112 200
e 113 121
e 113 122
e 113 129
e 113 133
e 113 139
e 113 141
e 113 142
e 113 145
e 113 152
e 113 156
e 113 157
e 113 160
e 113 162
e 113 177
e 113 179
e 113 180
e 113 188
e 113 191
e 113 192
e 113 197
e 113 200
e 114 115
e 114 120
e 114 124
e 114 125
e 114 128
e 114 130
e 114 131
e 114 133
e 114 136
e 114 143
e 114 149
e 114 155
e 114 157
e 114 159
e 114 162
e 114 166
e 114 175
e 114 179
e 114 192
e 114 193
e 114 194
e 114 200
e 115 117
e 115 126
e 115 130
e 115 131
e 115 134
e 115 142
e 115 149
e 115 152
e 115 157
e 115 158
e 115 163
e 115 164
e 115 176
e 115 178
e 115 179
e 115 181
e 115 186
e 115 194
e 115 197
e 115 200
e 116 126
e 116 128
e 116 131
e 116 133
e 116 143
e 116 157
e 116 159
e 116 161
e 116 167
e 116 173
e 116 175
e 116 179
e 116 192
e 117 119
e 117 120
e 117 130
e 117 131
e 117 139
e 117 141
e 117 145
e 117 149
e 117 150
e 117 157
e 117 158
e 117 159
e 117 160
e 117 171
e 117 172
e 117 176
e 117 188
e 117 191
e 117 195
e 117 198
e 118 142
e 118 151
e 118 153
e 118 156
e 118 159
e 118 160
e 118 166
e 118 167
e 118 172
e 118 190
e 118 192
e 118 199
e 119 122
e 119 138
e 119 142
e 119 151
e 119 155
e 119 160
e 119 173
e 119 174
e 119 176
e 119 182
e 119 184
e 119 196
e 119 197
e 120 122
e 120 130
e 120 132
e 120 142
e 120 146
e 120 149
e 120 155
e 120 157
e 120 170
e 120 178
e 120 179
e 120 184
e 120 188
e 120 191
e 120 200
e 121 127
e 121 129
e 121 138
e 121 142
e 121 145
e 121 151
e 121 161
e 121 169
e 121 177
e 121 179
e 121 181
e 121 185
e 121 198
e 121 199
e 122 123
e 122 135
e 122 136
e 122 137
e 122 140
e 122 145
e 122 146
e 122 151
e 122 167
e 122 169
e 122 174
e 122 177
e 122 181
e 122 188
e 122 189
e 122 191
e 122 192
e 123 156
e 123 158
e 123 160
e 123 164
e 123 165
e 123 166
e 123 176
e 123 177
e 123 180
e 123 182
e 123 183
e 123 184
e 123 187
e 123 189
e 123 192
e 123 193
e 123 195
e 123 199
e 124 130
e 124 131
e 124 138
e 124 143
e 124 149
e 124 162
e 124 165
e 124 166
e 124 168
e 124 179
e 124 186
e 124 194
e 124 197
e 124 199
e 125 129
e 125 135
e 125 137
e 125 138
e 125 140
e 125 142
e 125 144
e 125 149
e 125 151
e 125 155
e 125 161
e 125 163
e 125 166
e 125 169
e 125 170
e 125 172
e 125 179
e 125 187
e 125 193
e 126 129
e 126 139
e 126 143
e 126 146
e 126 149
e 126 157
e 126 161
e 126 178
e 126 184
e 126 186
e 126 187
e 126 188
e 126 192
e 126 197
e 127 134
e 127 137
e 127 138
e 127 147
e 127 148
e 127 153
e 127 159
e 127 168
e 127 171
e 127 176
e 127 179
e 127 180
e 127 191
e 127 197
e 128 133
e 128 146
e 128 148
e 128 152
e 128 154
e 128 159
e 128 163
e 128 164
e 128 171
e 128 177
e 128 179
e 128 189
e 128 194
e 129 131
e 129 133
e 129 139
e 129 142
e 129 149
e 129 176
e 129 177
e 129 188
e 129 196
e 129 197
e 130 131
e 130 142
e 130 144
e 130 162
e 130 164
e 130 173
e 130 178
e 130 180
e 130 183
e 130 187
e 130 194
e 130 200
e 131 136
e 131 137
e 131 138
e 131 145
e 131 152
e 131 153
e 131 160
e 131 163
e 131 164
e 131 166
e 131 167
e 131 174
e 131 183
e 131 188
e 131 193
e 131 195
e 132 137
e 132 139
e 132 140
e 132 145
e 132 152
e 132 157
e 132 158
e 132 163
e 132 168
e 132 171
e 132 176
e 132 185
e 132 189
e 132 190
e 132 198
e 133 134
e 133 138
e 133 143
e 133 147
e 133 153
e 133 154
e 133 162
e 133 166
e 133 167
e 133 185
e 133 190
e 133 194
e 133 195
e 133 196
e 134 146
e 134 150
e 134 162
e 134 165
e 134 171
e 134 174
e 134 179
e 134 181
e 134 185
e 134 186
e 134 190
e 134 191
e 134 196
e 134 197
e 134 198
e 135 136
e 135 139
e 135 142
e 135 143
e 135 181
e 135 185
e 135 188
e 135 192
e 135 196
e 135 200
e 136 139
e 136 140
e 136 145
e 136 157
e 136 160
e 136 164
e 136 166
e 136 171
e 136 174
e 136 176
e 136 183
e 136 184
e 136 188
e 136 192
e 136 195
e 136 196
e 136 197
e 136 198
e 136 199
e 136 200
e 137 142
e 137 146
e 137 156
e 137 162
e 137 182
e 137 183
e 137 194
e 138 140
e 138 141
e 138 142
e 138 144
e 138 147
e 138 148
e 138 157
e 138 158
e 138 162
e 138 166
e 138 168
e 138 173
e 138 188
e 138 190
e 138 196
e 138 197
e 139 142
e 139 143
e 139 151
e 139 152
e 139 158
e 139 159
e 139 160
e 139 166
e 139 170
e 139 181
e 139 188
e 139 193
e 139 196
e 139 197
e 140 141
e 140 146
e 140 149
e 140 162
e 140 174
e 140 175
e 140 179
e 140 193
e 140 194
e 140 195
e 140 198
e 141 145
e 141 148
e 141 151
e 141 156
e 141 157
e 141 164
e 141 166
e 141 173
e 141 182
e 141 191
e 141 192
e 141 195
e 141 200
e 142 152
e 142 156
e 142 161
e 142 162
e 142 164
e 142 166
e 142 168
e 142 171
e 142 175
e 142 194
e 142 198
e 143 145
e 143 149
e 143 151
e 143 161
e 143 162
e 143 165
e 143 167
e 143 181
e 143 191
e 143 192
e 143 195
e 143 197
e 143 198
e 143 199
e 144 151
e 144 155
e 144 174
e 144 177
e 144 180
e 144 181
e 144 187
e 144 190
e 144 196
e 144 197
e 144 200
e 145 152
e 145 153
e 145 156
e 145 180
e 145 186
e 145 193
e 145 199
e 146 149
e 146 151
e 146 156
e 146 159
e 146 167
e 146 170
e 146 173
e 146 177
e 146 179
e 146 181
e 146 183
e 146 184
e 146 189
e 146 192
e 146 195
e 146 197
e 146 200
e 147 150
e 147 153
e 147 158
e 147 163
e 147 172
e 147 176
e 147 182
e 147 183
e 147 189
e 147 190
e 148 149
e 148 152
e 148 160
e 148 164
e 148 171
e 148 172
e 148 175
e 148 177
e 148 180
e 148 182
e 148 185
e 149 155
e 149 173
e 149 179
e 149 180
e 149 182
e 149 183
e 149 185
e 149 188
e 149 191
e 149 196
e 149 197
e 149 198
e 150 152
e 150 158
e 150 171
e 150 172
e 150 179
e 150 180
e 150 183
e 150 185
e 150 188
e 150 190
e 150 191
e 150 194
e 151 153
e 151 162
e 151 164
e 151 165
e 151 169
e 151 170
e 151 175
e 151 176
e 151 178
e 151 181
e 151 190
e 151 191
e 151 196
e 152 155
e 152 157
e 152 160
e 152 162
e 152 168
e 152 169
e 152 175
e 152 182
e 152 186
e 152 189
e 153 154
e 153 155
e 153 156
e 153 179
e 153 183
e 153 190
e 153 193
e 153 197
e 154 155
e 154 156
e 154 162
e 154 165
e 154 167
e 154 174
e 154 176
e 154 178
e 154 185
e 154 187
e 154 188
e 154 189
e 154 191
e 154 192
e 155 157
e 155 162
e 155 163
e 155 167
e 155 179
e 155 183
e 155 189
e 155 196
e 156 160
e 156 169
e 156 170
e 156 171
e 156 172
e 156 175
e 156 178
e 156 180
e 156 187
e 156 197
e 157 165
e 157 166
e 157 171
e 157 179
e 157 183
e 157 197
e 158 170
e 158 173
e 158 177
e 158 200
e 159 160
e 159 168
e 159 179
e 159 185
e 159 191
e 159 192
e 159 195
e 159 198
e 160 161
e 160 163
e 160 166
e 160 173
e 160 174
e 160 175
e 160 178
e 160 192
e 160 196
e 161 164
e 161 170
e 161 174
e 161 175
e 161 178
e 161 181
e 161 187
e 161 192
e 161 194
e 161 195
e 161 196
e 161 198
e 161 199
e 162 164
e 162 174
e 162 178
e 162 187
e 162 194
e 162 195
e 162 196
e 163 165
e 163 170
e 163 177
e 163 183
e 163 184
e 163 189
e 163 190
e 163 192
e 163 198
e 164 175
e 164 179
e 164 181
e 164 182
e 164 184
e 164 185
e 164 187
e 164 190
e 164 192
e 165 171
e 165 185
e 165 192
e 165 195
e 165 197
e 165 199
e 166 176
e 166 177
e 166 179
e 166 185
e 166 187
e 166 190
e 166 194
e 166 196
e 166 197
e 167 168
e 167 172
e 167 180
e 167 185
e 168 169
e 168 175
e 168 181
e 168 187
e 168 197
e 169 173
e 169 182
e 169 187
e 169 188
e 169 194
e 169 196
e 169 199
e 170 171
e 170 177
e 170 178
e 170 183
e 170 190
e 170 192
e 171 174
e 171 181
e 171 186
e 171 190
e 171 196
e 171 197
e 172 176
e 172 178
e 172 180
e 172 186
e 172 187
e 172 198
e 173 177
e 173 179
e 173 183
e 173 184
e 173 194
e 173 199
e 174 179
e 174 181
e 174 182
e 175 176
e 175 182
e 175 191
e 175 199
e 175 200
e 176 181
e 176 185
e 176 188
e 176 190
e 176 198
e 176 199
e 176 200
e 177 182
e 177 186
e 177 195
e 178 184
e 178 186
e 178 191
e 179 187
e 179 190
e 179 195
e 179 196
e 179 198
e 180 187
e 180 188
e 180 194
e 181 182
e 181 183
e 181 186
e 181 189
e 181 198
e 182 188
e 182 189
e 182 197
e 183 184
e 183 185
e 183 186
e 183 187
e 183 196
e 184 188
e 184 192
e 184 196
e 185 187
e 185 199
e 186 193
e 186 198
e 187 190
e 187 191
e 187 193
e 187 194
e 187 195
e 187 196
e 187 198
e 188 192
e 189 195
e 189 197
e 189 198
e 190 196
e 190 199
e 191 193
e 191 194
e 191 195
e 191 200
e 192 193
e 192 194
e 192 196
e 193 197
e 194 196
